(set-info :smt-lib-version 2.6)
(set-logic QF_FP)
(set-option :produce-models true)
(set-info :source |Random FP created by PyMPF|)
(set-info :license |https://www.gnu.org/licenses/gpl-3.0.html|)
(set-info :category random)
(set-info :status sat)
(declare-const x Float32)
(assert (= x (_ NaN 8 24)))
;; x should be Float32(NaN)

(declare-const y Float32)
(assert (= y ((_ to_fp 8 24) #x7FE95E5D)))
;; y should be Float32(NaN)

(declare-const z Float32)
(assert (= z ((_ to_fp 8 24) #x2CB25F02)))
;; z should be Float32(0x2CB25F02 [Rational(5844865, 1152921504606846976), 0.000000])

(declare-const result Float32)
(assert (= result (fp.fma RNE x y z)))
(assert (= result (fp #b1 #b11111111 #b11111111111111111111111)))
(check-sat)
(exit)
